Solver command line: []

Read LP format model from file C:\Users\wlhlm\AppData\Local\Temp\tmpkw55j0rv.pyomo.lp
Reading time = 0.04 seconds
objective: 17977 rows, 16631 columns, 40802 nonzeros
Set parameter TimeLimit to value 5000
Set parameter MIPGap to value 0.08
Gurobi Optimizer version 12.0.1 build v12.0.1rc0 (win64 - Windows 11.0 (26100.2))

CPU model: Intel(R) Core(TM) Ultra 7 258V, instruction set [SSE2|AVX|AVX2]
Thread count: 8 physical cores, 8 logical processors, using up to 8 threads

Non-default parameters:
TimeLimit  5000
MIPGap  0.08

Optimize a model with 17977 rows, 16631 columns and 40802 nonzeros
Model fingerprint: 0x88d42118
Model has 167 quadratic constraints
Variable types: 14280 continuous, 2351 integer (2016 binary)
Coefficient statistics:
  Matrix range     [6e-03, 1e+03]
  QMatrix range    [1e+00, 1e+00]
  Objective range  [4e+01, 3e+02]
  Bounds range     [1e+00, 3e+00]
  RHS range        [2e-03, 1e+04]
Presolve removed 15381 rows and 13543 columns
Presolve time: 0.08s
Presolved: 2596 rows, 3088 columns, 8728 nonzeros
Variable types: 2417 continuous, 671 integer (671 binary)

Root relaxation: objective 5.362535e+05, 1254 iterations, 0.00 seconds (0.01 work units)

    Nodes    |    Current Node    |     Objective Bounds      |     Work
 Expl Unexpl |  Obj  Depth IntInf | Incumbent    BestBd   Gap | It/Node Time

     0     0 536253.481    0   15          - 536253.481      -     -    0s
     0     0 537068.289    0   28          - 537068.289      -     -    0s
     0     0 537070.786    0   27          - 537070.786      -     -    0s
H    0     0                    546193.05643 537070.786  1.67%     -    0s
H    0     0                    545412.83806 537070.786  1.53%     -    0s

Cutting planes:
  Gomory: 22
  Cover: 1
  Implied bound: 1
  MIR: 36
  Flow cover: 23
  Relax-and-lift: 1

Explored 1 nodes (1354 simplex iterations) in 0.16 seconds (0.13 work units)
Thread count was 8 (of 8 available processors)

Solution count 2: 545413 546193 

Optimal solution found (tolerance 8.00e-02)
Best objective 5.454128380638e+05, best bound 5.370707859212e+05, gap 1.5295%

